Linux optc-09-13 4.15.0-58-generic #64-Ubuntu SMP Tue Aug 6 11:12:41 UTC 2019 x86_64 x86_64 x86_64 GNU/Linux

top - 21:26:28 up 1 day, 11:27,  0 users,  load average: 0,49, 0,82, 0,93
Tasks: 289 gesamt,   1 laufend, 149 schlafend,   0 gestoppt,   0 Zombie
%CPU(s):  7,6 be,  0,3 sy,  0,0 ni, 92,1 un,  0,0 wa,  0,0 hi,  0,0 si,  0,0 st
KiB Spch : 97514992 gesamt, 93577360 frei,   649488 belegt,  3288148 Puff/Cache
KiB Swap:  8388604 gesamt,  8388604 frei,        0 belegt. 96120576 verfü Spch 

  PID USER      PR  NI    VIRT    RES    SHR S  %CPU %MEM     ZEIT+ BEFEHL
    1 root      20   0  233852   9276   6548 S   0,0  0,0   0:11.53 systemd
    2 root      20   0       0      0      0 S   0,0  0,0   0:00.13 kthreadd
    4 root       0 -20       0      0      0 I   0,0  0,0   0:00.00 kworker/0:+
    6 root      20   0       0      0      0 I   0,0  0,0   0:00.00 kworker/u3+
    7 root       0 -20       0      0      0 I   0,0  0,0   0:00.00 mm_percpu_+
    8 root      20   0       0      0      0 S   0,0  0,0   0:00.03 ksoftirqd/0
    9 root      20   0       0      0      0 I   0,0  0,0   0:13.90 rcu_sched
   10 root      20   0       0      0      0 I   0,0  0,0   0:00.00 rcu_bh

hard time limit: 04:10:00
hard mem limit: 55100

SLURM jobID: 2182584

@01 /nfs/optimi/kombadon/IP/coral/neos-1062641.mps.gz ===========
-----------------------------
Do 22. Aug 21:26:28 CEST 2019
-----------------------------
@03 1566501988
@05 7200
SCIP version 6.0.0 [precision: 8 byte] [memory: block] [mode: optimized] [LP solver: CPLEX 12.8.0.0] [GitHash: 41ab6e0014]
Copyright (C) 2002-2018 Konrad-Zuse-Zentrum fuer Informationstechnik Berlin (ZIB)

External codes: 
  Readline 7.0         GNU library for command line editing (gnu.org/s/readline)
  CPLEX 12.8.0.0       Linear Programming Solver developed by IBM (www.cplex.com)
  CppAD 20180000.0     Algorithmic Differentiation of C++ algorithms developed by B. Bell (www.coin-or.org/CppAD)
  ZLIB 1.2.11          General purpose compression library by J. Gailly and M. Adler (zlib.net)
  GMP 6.1.2            GNU Multiple Precision Arithmetic Library developed by T. Granlund (gmplib.org)
  bliss 0.73p          Computing Graph Automorphism Groups by T. Junttila and P. Kaski (http://www.tcs.hut.fi/Software/bliss/)

user parameter file <scip.set> not found - using default parameters

SCIP> 
SCIP> set load /home/optimi/bzfhende/opti/scip-opti/check/../settings/enable_treeeprofile.set
loaded parameter file </home/optimi/bzfhende/opti/scip-opti/check/../settings/enable_treeprofile.set>
SCIP> set misc referencevalue -1.15926468e-09
misc/referencevalue = -1.15926468e-09
SCIP> set limits time 7200
limits/time = 7200
SCIP> set limits nodes 2100000000
limits/nodes = 2100000000
SCIP> set limits memory 50000
limits/memory = 50000
SCIP> set lp advanced threads 1
lp/threads = 1
SCIP> set timing clocktype 1
timing/clocktype = 1
SCIP> set display freq 10000
display/freq = 10000
SCIP> set memory savefac 1.0
memory/savefac = 1
SCIP> set save /home/optimi/bzfhende/opti/scip-opti/check/treesize.estimation.jouurnal.3/bzfhende.MMMc.120_neos-1062641.scip.M640.enable_treeprofile.set
saved parameter file </home/optimi/bzfhende/opti/scip-opti/check/treesize.estimation.journal.3/bzfhende.MMMc.120_neos-1062641.scip.M640.enable_treeprofile.set>
SCIP> read /nfs/optimi/kombadon/IP/coral/neos-1062641.mps.gz

read problem </nfs/optimi/kombadon/IP/coral/neos-1062641.mps.gz>
============

original problem has 1748 variables (224 bin, 0 int, 0 impl, 1524 cont) and 1677 constraints
SCIP> display parameters

number of parameters = 2448
non-default parameter settings:
display/freq = 10000
limits/time = 7200
limits/nodes = 2100000000
limits/memory = 50000
lp/threads = 1
memory/savefac = 1
misc/referencevalue = -1.15926468e-09
presolving/maxrestarts = 0
estimates/profile/enabled = TRUE
estimates/profile/maxdepthfactor = 10
estimates/profile/freq = 0

SCIP> optimize

Activating tree profile data collection
presolving:
(round 1, fast)       684 del vars, 706 del conss, 0 add conss, 954 chg bounds, 104 chg sides, 221 chg coeffs, 0 upgd conss, 37 impls, 30 clqs
(round 2, fast)       742 del vars, 802 del conss, 0 add conss, 1130 chg bounds, 164 chg sides, 281 chg coeffs, 0 upgd conss, 37 impls, 30 clqs
(round 3, fast)       800 del vars, 875 del conss, 0 add conss, 1281 chg bounds, 182 chg sides, 329 chg coeffs, 0 upgd conss, 37 impls, 30 clqs
(round 4, fast)       856 del vars, 909 del conss, 0 add conss, 1407 chg bounds, 186 chg sides, 348 chg coeffs, 0 upgd conss, 37 impls, 30 clqs
(round 5, fast)       856 del vars, 909 del conss, 0 add conss, 1417 chg bounds, 210 chg sides, 350 chg coeffs, 0 upgd conss, 37 impls, 30 clqs
(round 6, fast)       856 del vars, 909 del conss, 0 add conss, 1419 chg bounds, 212 chg sides, 352 chg coeffs, 0 upgd conss, 37 impls, 30 clqs
(round 7, fast)       856 del vars, 909 del conss, 0 add conss, 1420 chg bounds, 213 chg sides, 353 chg coeffs, 0 upgd conss, 37 impls, 30 clqs
(round 8, fast)       856 del vars, 909 del conss, 0 add conss, 1421 chg bounds, 214 chg sides, 354 chg coeffs, 0 upgd conss, 37 impls, 30 clqs
(round 9, fast)       856 del vars, 909 del conss, 0 add conss, 1422 chg bounds, 215 chg sides, 355 chg coeffs, 0 upgd conss, 37 impls, 30 clqs
(round 10, fast)       856 del vars, 909 del conss, 0 add conss, 1423 chg bounds, 216 chg sides, 356 chg coeffs, 0 upgd conss, 37 impls, 30 clqs
(round 11, exhaustive) 856 del vars, 909 del conss, 0 add conss, 1423 chg bounds, 216 chg sides, 356 chg coeffs, 200 upgd conss, 37 impls, 30 clqs
(round 12, fast)       856 del vars, 909 del conss, 0 add conss, 1437 chg bounds, 216 chg sides, 356 chg coeffs, 200 upgd conss, 182 impls, 30 clqs
(round 13, exhaustive) 856 del vars, 949 del conss, 10 add conss, 1437 chg bounds, 216 chg sides, 356 chg coeffs, 200 upgd conss, 182 impls, 30 clqs
(round 14, exhaustive) 856 del vars, 949 del conss, 10 add conss, 1437 chg bounds, 216 chg sides, 356 chg coeffs, 285 upgd conss, 182 impls, 39 clqs
(round 15, fast)       856 del vars, 949 del conss, 10 add conss, 1454 chg bounds, 216 chg sides, 356 chg coeffs, 285 upgd conss, 250 impls, 39 clqs
(round 16, exhaustive) 947 del vars, 949 del conss, 10 add conss, 1454 chg bounds, 216 chg sides, 356 chg coeffs, 285 upgd conss, 250 impls, 39 clqs
(round 17, fast)       982 del vars, 1038 del conss, 10 add conss, 1527 chg bounds, 217 chg sides, 357 chg coeffs, 285 upgd conss, 251 impls, 39 clqs
(round 18, fast)       1045 del vars, 1097 del conss, 10 add conss, 1640 chg bounds, 217 chg sides, 358 chg coeffs, 285 upgd conss, 251 impls, 39 clqs
(round 19, fast)       1046 del vars, 1097 del conss, 10 add conss, 1743 chg bounds, 217 chg sides, 358 chg coeffs, 285 upgd conss, 251 impls, 39 clqs
(round 20, fast)       1046 del vars, 1097 del conss, 10 add conss, 1773 chg bounds, 217 chg sides, 358 chg coeffs, 285 upgd conss, 251 impls, 39 clqs
(round 21, exhaustive) 1052 del vars, 1097 del conss, 10 add conss, 1773 chg bounds, 217 chg sides, 358 chg coeffs, 285 upgd conss, 251 impls, 39 clqs
(round 22, fast)       1056 del vars, 1101 del conss, 10 add conss, 1805 chg bounds, 217 chg sides, 358 chg coeffs, 285 upgd conss, 251 impls, 39 clqs
(round 23, fast)       1056 del vars, 1101 del conss, 10 add conss, 1833 chg bounds, 217 chg sides, 358 chg coeffs, 285 upgd conss, 251 impls, 39 clqs
(round 24, fast)       1056 del vars, 1101 del conss, 10 add conss, 1843 chg bounds, 217 chg sides, 358 chg coeffs, 285 upgd conss, 251 impls, 39 clqs
(round 25, exhaustive) 1082 del vars, 1101 del conss, 10 add conss, 2266 chg bounds, 217 chg sides, 358 chg coeffs, 285 upgd conss, 4373 impls, 187 clqs
(round 26, fast)       1085 del vars, 1133 del conss, 10 add conss, 2266 chg bounds, 272 chg sides, 472 chg coeffs, 285 upgd conss, 4377 impls, 161 clqs
   (0.1s) probing cycle finished: starting next cycle
(round 27, exhaustive) 1091 del vars, 1133 del conss, 10 add conss, 2309 chg bounds, 272 chg sides, 472 chg coeffs, 285 upgd conss, 5856 impls, 108 clqs
(round 28, fast)       1091 del vars, 1139 del conss, 10 add conss, 2309 chg bounds, 290 chg sides, 508 chg coeffs, 285 upgd conss, 5856 impls, 108 clqs
   (0.1s) probing cycle finished: starting next cycle
   (0.1s) probing: 36/56 (64.3%) - 25 fixings, 7 aggregations, 6303 implications, 462 bound changes
   (0.1s) probing aborted: 50/50 successive totally useless probings
presolving (29 rounds: 29 fast, 8 medium, 8 exhaustive):
 1091 deleted vars, 1139 deleted constraints, 10 added constraints, 2309 tightened bounds, 0 added holes, 290 changed sides, 508 changed coefficients
 5856 implications, 108 cliques
presolved problem has 657 variables (56 bin, 0 int, 0 impl, 601 cont) and 548 constraints
    117 constraints of type <varbound>
    431 constraints of type <linear>
Presolving Time: 0.06

 time | node  | left  |LP iter|LP it/n| mem |mdpt |frac |vars |cons |cols |rows |cuts |confs|strbr|  dualbound   | primalbound  |  gap   
k 0.1s|     1 |     0 |     6 |     - |9936k|   0 |   - | 657 | 548 | 657 | 548 |   0 |   0 |   0 |-1.083651e+04 | 1.000000e+01 |    Inf 
b 0.1s|     1 |     0 |     6 |     - |9938k|   0 |   - | 657 | 548 | 657 | 548 |   0 |   0 |   0 |-1.083651e+04 | 1.000000e+00 |    Inf 
  0.1s|     1 |     0 |   121 |     - |9938k|   0 |  13 | 657 | 548 | 657 | 548 |   0 |   0 |   0 | 0.000000e+00 | 1.000000e+00 |    Inf 
  0.1s|     1 |     0 |   125 |     - |  10M|   0 |  12 | 657 | 548 | 657 | 549 |   1 |   0 |   0 | 0.000000e+00 | 1.000000e+00 |    Inf 
  0.1s|     1 |     0 |   129 |     - |  10M|   0 |  10 | 657 | 548 | 657 | 551 |   3 |   0 |   0 | 0.000000e+00 | 1.000000e+00 |    Inf 
  0.1s|     1 |     0 |   130 |     - |  10M|   0 |  10 | 657 | 548 | 657 | 552 |   4 |   0 |   0 | 0.000000e+00 | 1.000000e+00 |    Inf 
  0.1s|     1 |     0 |   131 |     - |  10M|   0 |   9 | 657 | 548 | 657 | 553 |   5 |   0 |   0 | 0.000000e+00 | 1.000000e+00 |    Inf 
  0.1s|     1 |     0 |   137 |     - |  10M|   0 |  12 | 657 | 548 | 657 | 557 |   9 |   0 |   0 | 0.000000e+00 | 1.000000e+00 |    Inf 
  0.1s|     1 |     0 |   138 |     - |  10M|   0 |  12 | 657 | 548 | 657 | 558 |  10 |   0 |   0 | 0.000000e+00 | 1.000000e+00 |    Inf 
  0.1s|     1 |     0 |   142 |     - |  10M|   0 |   9 | 657 | 548 | 657 | 562 |  14 |   0 |   0 | 0.000000e+00 | 1.000000e+00 |    Inf 
  0.1s|     1 |     0 |   143 |     - |  10M|   0 |   8 | 657 | 548 | 657 | 563 |  15 |   0 |   0 | 0.000000e+00 | 1.000000e+00 |    Inf 
  0.1s|     1 |     0 |   145 |     - |  10M|   0 |   6 | 657 | 548 | 657 | 566 |  18 |   0 |   0 | 0.000000e+00 | 1.000000e+00 |    Inf 
i 0.1s|     1 |     0 |   154 |     - |  10M|   0 |   - | 657 | 548 | 657 | 566 |  18 |   0 |   0 | 0.000000e+00 | 0.000000e+00 |   0.00%
SCIP nodes: 1 Estimation: -1
  0.1s|     1 |     0 |   154 |     - |  10M|   0 |   - | 657 | 548 | 657 | 566 |  18 |   0 |   0 | 0.000000e+00 | 0.000000e+00 |   0.00%
Report 1
Time Elapsed: 0.09
  Tree Data        : 1 nodes (1 visited, 0 inner, 1 leaves, 0 open), progress: 1.0000
Tree Estimation    :       estim       value       trend  resolution      smooth
  wbe              :          -1           -           -           -           -
  tree profile     :          -1           -           -           -           -
  gap              :           1     1.00000     1.00000           1           1
  progress         :           1     1.00000     1.00000           1           1
  leaf-frequency   :           1     0.50000     1.00000           1           1
  ssg              :           1     0.00000    -1.00000           1           1
  open-nodes       :           1     0.00000     0.00000           1           1
End of Report 1


SCIP Status        : problem is solved [optimal solution found]
Solving Time (sec) : 0.09
Solving Nodes      : 1
Primal Bound       : +0.00000000000000e+00 (3 solutions)
Dual Bound         : +0.00000000000000e+00
Gap                : 0.00 %

SCIP> display statistics

SCIP Status        : problem is solved [optimal solution found]
Total Time         :       0.09
  solving          :       0.09
  presolving       :       0.06 (included in solving)
  reading          :       0.00
  copying          :       0.00 (0 times copied the problem)
Original Problem   :
  Problem name     : file
  Variables        : 1748 (224 binary, 0 integer, 0 implicit integer, 1524 continuous)
  Constraints      : 1677 initial, 1677 maximal
  Objective        : minimize, 116 non-zeros (abs.min = 1, abs.max = 1)
Presolved Problem  :
  Problem name     : t_file
  Variables        : 657 (56 binary, 0 integer, 0 implicit integer, 601 continuous)
  Constraints      : 548 initial, 548 maximal
  Objective        : minimize, 132 non-zeros (abs.min = 0.0124452, abs.max = 1)
Presolvers         :   ExecTime  SetupTime  Calls  FixedVars   AggrVars   ChgTypes  ChgBounds   AddHoles    DelCons    AddCons   ChgSides   ChgCoefs
  boundshift       :       0.00       0.00      0          0          0          0          0          0          0          0          0          0
  convertinttobin  :       0.00       0.00      0          0          0          0          0          0          0          0          0          0
  domcol           :       0.01       0.00      5         97          0          0          0          0          0          0          0          0
  dualagg          :       0.00       0.00      0          0          0          0          0          0          0          0          0          0
  dualcomp         :       0.00       0.00      5          0          0          0          0          0          0          0          0          0
  dualinfer        :       0.00       0.00      0          0          0          0          0          0          0          0          0          0
  gateextraction   :       0.00       0.00      1          0          0          0          0          0         40         10          0          0
  implics          :       0.00       0.00      8          0          0          0          0          0          0          0          0          0
  inttobinary      :       0.00       0.00      0          0          0          0          0          0          0          0          0          0
  qpkktref         :       0.00       0.00      0          0          0          0          0          0          0          0          0          0
  redvub           :       0.00       0.00      0          0          0          0          0          0          0          0          0          0
  sparsify         :       0.00       0.00      1          0          0          0          0          0          0          0          0          0
  stuffing         :       0.00       0.00      0          0          0          0          0          0          0          0          0          0
  symbreak         :       0.00       0.00      0          0          0          0          0          0          0          0          0          0
  symmetry         :       0.00       0.00      0          0          0          0          0          0          0          0          0          0
  trivial          :       0.00       0.00     29          0          0          0          0          0          0          0          0          0
  tworowbnd        :       0.00       0.00      0          0          0          0          0          0          0          0          0          0
  dualfix          :       0.00       0.00     29        131          0          0          0          0          0          0          0          0
  genvbounds       :       0.00       0.00      0          0          0          0          0          0          0          0          0          0
  orbitalfixing    :       0.00       0.00      0          0          0          0          0          0          0          0          0          0
  probing          :       0.04       0.00      3         25          7          0        462          0          0          0          0          0
  pseudoobj        :       0.00       0.00      0          0          0          0          0          0          0          0          0          0
  vbounds          :       0.00       0.00      3          0          0          0          0          0          0          0          0          0
  varbound         :       0.00       0.00     25          0          0          0         31          0        128          0         30        100
  setppc           :       0.00       0.00     28          0          2          0          0          0         10          0          0          0
  linear           :       0.01       0.01     36          0        829          0       1816          0        961          0        260        408
  benders          :       0.00       0.00      0          0          0          0          0          0          0          0          0          0
  components       :       0.00       0.00      1          0          0          0          0          0          0          0          0          0
  root node        :          -          -      -          0          -          -          0          -          -          -          -          -
Constraints        :     Number  MaxNumber  #Separate #Propagate    #EnfoLP    #EnfoRelax  #EnfoPS    #Check   #ResProp    Cutoffs    DomReds       Cuts    Applied      Conss   Children
  benderslp        :          0          0          0          0          0          0          0         21          0          0          0          0          0          0          0
  integral         :          0          0          0          0          0          0          0         21          0          0          0          0          0          0          0
  varbound         :        117        117         10       1435          0          0          0         16          0          0          0          0          0          0          0
  linear           :        431        431         10       1436          0          0          0          4          0          4          0          0          0          0          0
  benders          :          0          0          0          0          0          0          0          4          0          0          0          0          0          0          0
  countsols        :          0          0          0          0          0          0          0          4          0          0          0          0          0          0          0
  components       :          0          0          0          0          0          0          0          0          0          0          0          0          0          0          0
Constraint Timings :  TotalTime  SetupTime   Separate  Propagate     EnfoLP     EnfoPS     EnfoRelax   Check    ResProp    SB-Prop
  benderslp        :       0.00       0.00       0.00       0.00       0.00       0.00       0.00       0.00       0.00       0.00
  integral         :       0.00       0.00       0.00       0.00       0.00       0.00       0.00       0.00       0.00       0.00
  varbound         :       0.01       0.00       0.00       0.01       0.00       0.00       0.00       0.00       0.00       0.00
  linear           :       0.02       0.01       0.00       0.01       0.00       0.00       0.00       0.00       0.00       0.00
  benders          :       0.00       0.00       0.00       0.00       0.00       0.00       0.00       0.00       0.00       0.00
  countsols        :       0.00       0.00       0.00       0.00       0.00       0.00       0.00       0.00       0.00       0.00
  components       :       0.00       0.00       0.00       0.00       0.00       0.00       0.00       0.00       0.00       0.00
Propagators        : #Propagate   #ResProp    Cutoffs    DomReds
  dualfix          :          2          0          0          0
  genvbounds       :          0          0          0          0
  nlobbt           :          0          0          0          0
  obbt             :          0          0          0          0
  orbitalfixing    :          0          0          0          0
  probing          :          0          0          0          0
  pseudoobj        :         13          0          0          0
  redcost          :         11          0          0          0
  rootredcost      :          0          0          0          0
  vbounds          :        218          0          0          0
Propagator Timings :  TotalTime  SetupTime   Presolve  Propagate    ResProp    SB-Prop
  dualfix          :       0.00       0.00       0.00       0.00       0.00       0.00
  genvbounds       :       0.00       0.00       0.00       0.00       0.00       0.00
  nlobbt           :       0.00       0.00       0.00       0.00       0.00       0.00
  obbt             :       0.00       0.00       0.00       0.00       0.00       0.00
  orbitalfixing    :       0.00       0.00       0.00       0.00       0.00       0.00
  probing          :       0.04       0.00       0.04       0.00       0.00       0.00
  pseudoobj        :       0.00       0.00       0.00       0.00       0.00       0.00
  redcost          :       0.00       0.00       0.00       0.00       0.00       0.00
  rootredcost      :       0.00       0.00       0.00       0.00       0.00       0.00
  vbounds          :       0.00       0.00       0.00       0.00       0.00       0.00
Conflict Analysis  :       Time      Calls    Success    DomReds  Conflicts   Literals    Reconvs ReconvLits   Dualrays   Nonzeros   LP Iters   (pool size: [--,--])
  propagation      :       0.00          0          0          -          0        0.0          0        0.0          -          -          -
  infeasible LP    :       0.00          0          0          -          0        0.0          0        0.0          0        0.0          0
  bound exceed. LP :       0.00          0          0          -          0        0.0          0        0.0          0        0.0          0
  strong branching :       0.00          0          0          -          0        0.0          0        0.0          -          -          0
  pseudo solution  :       0.00          0          0          -          0        0.0          0        0.0          -          -          -
  applied globally :       0.00          -          -          0          0        0.0          -          -          0          -          -
  applied locally  :          -          -          -          0          0        0.0          -          -          0          -          -
Separators         :   ExecTime  SetupTime      Calls    Cutoffs    DomReds       Cuts    Applied      Conss
  cut pool         :       0.00                    21          -          -         80          -          -    (maximal pool size: 195)
  aggregation      :       0.01       0.00         10          0          0          0          0          0
  cgmip            :       0.00       0.00          0          0          0          0          0          0
  clique           :       0.00       0.00         10          0          0          0          0          0
  closecuts        :       0.00       0.00          0          0          0          0          0          0
  cmir             :       0.00       0.00          0          0          0          0          4          0
  convexproj       :       0.00       0.00          0          0          0          0          0          0
  disjunctive      :       0.00       0.00          0          0          0          0          0          0
  eccuts           :       0.00       0.00          0          0          0          0          0          0
  flowcover        :       0.00       0.00          0          0          0          0          1          0
  gauge            :       0.00       0.00          0          0          0          0          0          0
  gomory           :       0.00       0.00         10          0          0          0          4          0
  impliedbounds    :       0.00       0.00         10          0          0          0          9          0
  intobj           :       0.00       0.00          0          0          0          0          0          0
  mcf              :       0.00       0.00          1          0          0          0          0          0
  oddcycle         :       0.00       0.00          0          0          0          0          0          0
  rapidlearning    :       0.00       0.00          0          0          0          0          0          0
  strongcg         :       0.00       0.00         10          0          0          0          0          0
  zerohalf         :       0.00       0.00         10          0          0          0          0          0
Pricers            :   ExecTime  SetupTime      Calls       Vars
  problem variables:       0.00          -          0          0
Branching Rules    :   ExecTime  SetupTime   BranchLP  BranchExt   BranchPS    Cutoffs    DomReds       Cuts      Conss   Children
  allfullstrong    :       0.00       0.00          0          0          0          0          0          0          0          0
  cloud            :       0.00       0.00          0          0          0          0          0          0          0          0
  distribution     :       0.00       0.00          0          0          0          0          0          0          0          0
  fullstrong       :       0.00       0.00          0          0          0          0          0          0          0          0
  inference        :       0.00       0.00          0          0          0          0          0          0          0          0
  leastinf         :       0.00       0.00          0          0          0          0          0          0          0          0
  lookahead        :       0.00       0.00          0          0          0          0          0          0          0          0
  mostinf          :       0.00       0.00          0          0          0          0          0          0          0          0
  multaggr         :       0.00       0.00          0          0          0          0          0          0          0          0
  nodereopt        :       0.00       0.00          0          0          0          0          0          0          0          0
  pscost           :       0.00       0.00          0          0          0          0          0          0          0          0
  random           :       0.00       0.00          0          0          0          0          0          0          0          0
  relpscost        :       0.00       0.00          0          0          0          0          0          0          0          0
Primal Heuristics  :   ExecTime  SetupTime      Calls      Found       Best
  LP solutions     :       0.00          -          -          0          0
  relax solutions  :       0.00          -          -          0          0
  pseudo solutions :       0.00          -          -          0          0
  strong branching :       0.00          -          -          0          0
  actconsdiving    :       0.00       0.00          0          0          0
  alns             :       0.00       0.00          0          0          0
  bound            :       0.00       0.00          0          0          0
  clique           :       0.00       0.00          1          0          0
  coefdiving       :       0.00       0.00          0          0          0
  completesol      :       0.00       0.00          0          0          0
  conflictdiving   :       0.00       0.00          0          0          0
  crossover        :       0.00       0.00          0          0          0
  dins             :       0.00       0.00          0          0          0
  distributiondivin:       0.00       0.00          0          0          0
  dualval          :       0.00       0.00          0          0          0
  farkasdiving     :       0.00       0.00          0          0          0
  feaspump         :       0.00       0.00          0          0          0
  fixandinfer      :       0.00       0.00          0          0          0
  fracdiving       :       0.00       0.00          0          0          0
  gins             :       0.00       0.00          0          0          0
  guideddiving     :       0.00       0.00          0          0          0
  indicator        :       0.00       0.00          0          0          0
  intdiving        :       0.00       0.00          0          0          0
  intshifting      :       0.00       0.00          1          1          1
  linesearchdiving :       0.00       0.00          0          0          0
  localbranching   :       0.00       0.00          0          0          0
  locks            :       0.00       0.00          1          1          1
  lpface           :       0.00       0.00          0          0          0
  mpec             :       0.00       0.00          0          0          0
  multistart       :       0.00       0.00          0          0          0
  mutation         :       0.00       0.00          0          0          0
  nlpdiving        :       0.00       0.00          0          0          0
  objpscostdiving  :       0.00       0.00          0          0          0
  octane           :       0.00       0.00          0          0          0
  ofins            :       0.00       0.00          0          0          0
  oneopt           :       0.00       0.00          1          1          1
  proximity        :       0.00       0.00          0          0          0
  pscostdiving     :       0.00       0.00          0          0          0
  randrounding     :       0.00       0.00         10          0          0
  rens             :       0.00       0.00          0          0          0
  reoptsols        :       0.00       0.00          0          0          0
  repair           :       0.00       0.00          0          0          0
  rins             :       0.00       0.00          0          0          0
  rootsoldiving    :       0.00       0.00          0          0          0
  rounding         :       0.00       0.00         10          0          0
  shiftandpropagate:       0.00       0.00          0          0          0
  shifting         :       0.00       0.00         10          0          0
  simplerounding   :       0.00       0.00          0          0          0
  subnlp           :       0.00       0.00          0          0          0
  trivial          :       0.00       0.00          2          0          0
  trivialnegation  :       0.00       0.00          0          0          0
  trysol           :       0.00       0.00          0          0          0
  twoopt           :       0.00       0.00          0          0          0
  undercover       :       0.00       0.00          0          0          0
  vbounds          :       0.00       0.00          0          0          0
  veclendiving     :       0.00       0.00          0          0          0
  zeroobj          :       0.00       0.00          0          0          0
  zirounding       :       0.00       0.00          1          0          0
  other solutions  :          -          -          -          0          -
Diving Statistics  :      Calls      Nodes   LP Iters Backtracks  Conflicts   MinDepth   MaxDepth   AvgDepth  RoundSols  NLeafSols  MinSolDpt  MaxSolDpt  AvgSolDpt
  actconsdiving    :          0          -          -          -          -          -          -          -          -          -          -          -          -
  coefdiving       :          0          -          -          -          -          -          -          -          -          -          -          -          -
  conflictdiving   :          0          -          -          -          -          -          -          -          -          -          -          -          -
  distributiondivin:          0          -          -          -          -          -          -          -          -          -          -          -          -
  farkasdiving     :          0          -          -          -          -          -          -          -          -          -          -          -          -
  fracdiving       :          0          -          -          -          -          -          -          -          -          -          -          -          -
  guideddiving     :          0          -          -          -          -          -          -          -          -          -          -          -          -
  linesearchdiving :          0          -          -          -          -          -          -          -          -          -          -          -          -
  pscostdiving     :          0          -          -          -          -          -          -          -          -          -          -          -          -
  veclendiving     :          0          -          -          -          -          -          -          -          -          -          -          -          -
Neighborhoods      :      Calls  SetupTime  SolveTime SolveNodes       Sols       Best       Exp3  EpsGreedy        UCB TgtFixRate  Opt  Inf Node Stal  Sol  Usr Othr Actv
  rens             :          0       0.00       0.00          0          0          0    0.00000   -1.00000    1.00000      0.900    0    0    0    0    0    0    0    1
  rins             :          0       0.00       0.00          0          0          0    0.00000   -1.00000    1.00000      0.900    0    0    0    0    0    0    0    1
  mutation         :          0       0.00       0.00          0          0          0    0.00000   -1.00000    1.00000      0.900    0    0    0    0    0    0    0    1
  localbranching   :          0       0.00       0.00          0          0          0    0.00000   -1.00000    1.00000      0.900    0    0    0    0    0    0    0    1
  crossover        :          0       0.00       0.00          0          0          0    0.00000   -1.00000    1.00000      0.900    0    0    0    0    0    0    0    1
  proximity        :          0       0.00       0.00          0          0          0    0.00000   -1.00000    1.00000      0.900    0    0    0    0    0    0    0    1
  zeroobjective    :          0       0.00       0.00          0          0          0    0.00000   -1.00000    1.00000      0.900    0    0    0    0    0    0    0    1
  dins             :          0       0.00       0.00          0          0          0    0.00000   -1.00000    1.00000      0.900    0    0    0    0    0    0    0    1
LP                 :       Time      Calls Iterations  Iter/call   Iter/sec  Time-0-It Calls-0-It    ItLimit
  primal LP        :       0.00          0          0       0.00          -       0.00          0
  dual LP          :       0.01         10        139      13.90   13900.00       0.00          0
  lex dual LP      :       0.00          0          0       0.00          -
  barrier LP       :       0.00          0          0       0.00          -       0.00          0
  resolve instable :       0.00          0          0       0.00          -
  diving/probing LP:       0.00          2         15       7.50          -
  strong branching :       0.00          0          0       0.00          -          -          -          0
    (at root node) :          -          0          0       0.00          -
  conflict analysis:       0.00          0          0       0.00          -
B&B Tree           :
  number of runs   :          1
  nodes            :          1 (0 internal, 1 leaves)
  feasible leaves  :          0
  infeas. leaves   :          0
  objective leaves :          1
  nodes (total)    :          1 (0 internal, 1 leaves)
  nodes left       :          0
  max depth        :          0
  max depth (total):          0
  backtracks       :          0 (0.0%)
  early backtracks :          0 (0.0%)
  nodes exc. ref.  :          0 (0.0%)
  delayed cutoffs  :          0
  repropagations   :          0 (0 domain reductions, 0 cutoffs)
  avg switch length:       2.00
  switching time   :       0.00
Root Node          :
  First LP value   : +0.00000000000000e+00
  First LP Iters   :        115
  First LP Time    :       0.00
  Final Dual Bound : +0.00000000000000e+00
  Final Root Iters :        139
  Root LP Estimate :                     -
Solution           :
  Solutions found  :          3 (3 improvements)
  First Solution   : +1.00000000000000e+01   (in run 1, after 1 nodes, 0.07 seconds, depth 57, found by <locks>)
  Gap First Sol.   :   infinite
  Gap Last Sol.    :       0.00 %
  Primal Bound     : +0.00000000000000e+00   (in run 1, after 1 nodes, 0.09 seconds, depth 0, found by <intshifting>)
  Dual Bound       : +0.00000000000000e+00
  Gap              :       0.00 %
  Avg. Gap         :     100.00 % (9.00 primal-dual integral)
  Tree Data        : 1 nodes (1 visited, 0 inner, 1 leaves, 0 open), progress: 1.0000
Tree Estimation    :       estim       value       trend  resolution      smooth
  wbe              :           1           -           -           -           -
  tree profile     :          -1           -           -           -           -
  gap              :           1     1.00000     1.00000           1           1
  progress         :           1     1.00000     1.00000           1           1
  leaf-frequency   :           1     0.50000     1.00000           1           1
  ssg              :           1     0.00000    -1.00000           1           1
  open-nodes       :           1     0.00000     0.00000           1           1


SCIP> checksol

check best solution
solution is feasible in original problem
Violation          :    absolute    relative
  bounds           : 1.82199e-09 1.82199e-09
  integrality      : 2.87161e-11           -
  LP rows          : 2.86980e-06 2.86980e-11
  constraints      : 2.86980e-06 2.86980e-11

SCIP> write sol /local/tmp/bzfhende-tmpdir/bzfhende.MMMc.120_neos-1062641.scip.M6640.enable_treeprofile.sol

written solution information to file </local/tmp/bzfhende-tmpdir/bzfhende.MMMc.120_neos-1062641.scip.M640.enable_treeprofile.sol>

SCIP> quit

Disabling tree profile data collection
Read MPS: 1
MIP has 1748 vars and 1677 constraints
Read SOL: 1
Objective value computed by solver: 0

Integrality tolerance: 1/10000
Linear tolerance: 1/10000
Objective tolerance: 1/10000

Check SOL: Integrality 1 Constraints 1 Objective 1
Maximum violations: Integrality 2.872e-11 Constraints 2.870178012106109e-06 Objective 0
@04 1566501989
-----------------------------
Do 22. Aug 21:26:29 CEST 2019
-----------------------------

=ready=
